(set-logic QF_S)
(declare-fun _var_0xINPUT_232675_() String)
(declare-fun __woorpje_diseq_pref0_() String)
(declare-fun __woorpje_diseq_suf_l0_() String)
(declare-fun __woorpje_diseq_suf_r0_() String)
(declare-fun __woorpje_diseq_pref1_() String)
(declare-fun __woorpje_diseq_suf_l1_() String)
(declare-fun __woorpje_diseq_suf_r1_() String)
(declare-fun __woorpje_diseq_pref2_() String)
(declare-fun __woorpje_diseq_suf_l2_() String)
(declare-fun __woorpje_diseq_suf_r2_() String)
(declare-fun __woorpje_diseq_pref3_() String)
(declare-fun __woorpje_diseq_suf_l3_() String)
(declare-fun __woorpje_diseq_suf_r3_() String)
(declare-fun __woorpje_diseq_pref4_() String)
(declare-fun __woorpje_diseq_suf_l4_() String)
(declare-fun __woorpje_diseq_suf_r4_() String)
(assert (=(str.++  "ND6MEXdqBD" "")(str.++ _var_0xINPUT_232675_  "")) )
(assert (=(str.++  "ND6MEXdqBD" "")(str.++ _var_0xINPUT_232675_  "")) )
(assert (=(str.++ _var_0xINPUT_232675_  "")(str.++  "ND6MEXdqBD" "")) )
(assert (=(str.++ _var_0xINPUT_232675_  "")(str.++ __woorpje_diseq_pref4_  "N" __woorpje_diseq_suf_l4_  "")) )
(assert (=(str.++  "VEECEXk2pV" "")(str.++ __woorpje_diseq_pref4_  "V" __woorpje_diseq_suf_r4_  "")) )
(assert  (<= (* (str.len _var_0xINPUT_232675_)(- 1)) (- 1)) )
(assert  (<= (* (str.len _var_0xINPUT_232675_)(- 1)) (- 1)) )
(assert  (<= (* (str.len _var_0xINPUT_232675_)(- 1)) (- 1)) )
(assert  (<= (* (str.len _var_0xINPUT_232675_)(- 1)) (- 1)) )
(assert  (<= (* (str.len _var_0xINPUT_232675_)(- 1)) (- 1)) )
(assert  (<= (* (str.len _var_0xINPUT_232675_)(- 1)) (- 1)) )
(assert  (<= (* (str.len _var_0xINPUT_232675_)(- 1)) (- 1)) )
(assert  (<= (* (str.len _var_0xINPUT_232675_)(- 1)) (- 1)) )
(assert  (<= (* (str.len _var_0xINPUT_232675_)(- 1)) (- 1)) )
(assert  (<= (* (str.len _var_0xINPUT_232675_)(- 1)) (- 1)) )
(check-sat)
